

[NpcPos]	Flags	Index	PosX	PosY	Type	IsRangeCheck
0	0	1	54	238	3	1
1	0	2	240	146	2	1
2	0	3	48	233	5	1
3	0	4	67	219	1	1
4	0	5	77	218	1	1
5	0	6	71	232	4	1
6	0	7	40	217	1	1
7	0	8	57	241	7	0
8	0	9	51	242	7	0
9	0	10	58	205	7	0
10	0	11	76	152	6	1
11	0	12	3	230	6	0
12	1	15	133	16	6	1
13	1	16	233	205	6	1
14	1	17	202	33	6	1
15	0	18	54	241	6	1
16	0	19	66	180	6	1
17	0	20	135	102	6	1
18	0	21	120	124	6	1
19	0	22	127	158	6	1
20	0	23	169	168	6	1
21	0	24	157	172	6	1
22	0	25	212	31	6	1
23	0	26	173	52	6	1
24	0	27	229	62	6	1
25	0	28	247	71	6	1
26	0	29	245	41	6	1
27	0	30	240	154	7	0
28	0	31	193	166	7	0
29	0	32	210	33	7	0
30	0	33	189	204	7	0
31	0	34	203	228	7	0
32	0	35	160	225	7	0
33	0	36	153	174	7	0
34	0	37	123	221	7	0
35	0	38	69	50	7	0
36	0	39	32	47	7	0
37	0	40	17	23	7	0
38	0	41	10	219	7	0
39	0	42	131	10	7	0
40	0	43	243	146	7	0
41	0	44	240	151	7	0
42	0	45	240	148	7	0
43	0	46	38	232	6	1
44	0	47	134	187	7	1
45	0	48	240	20	7	0
46	1	49	236	8	6	1
47	0	50	0	0	1	0
48	1	75	42	233	1	0

[WarpLst]	NpcsIdx	NSetIdx	TargetIdx	LV	Fee	Type
0	11	0	218	50	0	0
1	12	0	222	50	0	0
2	15	0	105	0	0	1
3	15	1	166	1	0	2
4	15	2	182	1	0	2
5	16	0	167	1	0	2
6	16	1	183	1	0	2
7	17	0	203	0	0	1
8	17	1	171	1	0	2
9	17	2	184	1	0	2
10	17	3	293	100	0	2
11	18	0	98	0	0	1
12	18	1	101	0	0	1
13	18	2	103	0	0	1
14	18	3	104	0	0	1
15	18	4	107	0	0	1
16	18	5	108	0	0	1
17	18	6	109	0	0	1
18	18	7	202	0	0	1
19	18	8	213	0	0	1
20	18	9	217	0	0	1
21	20	0	272	0	0	1
22	21	0	97	0	0	1
23	22	0	99	0	0	1
24	23	0	100	0	0	1
25	24	0	102	0	0	1
26	26	0	199	0	0	1
27	49	0	306	125	0	2

[SkillLst]	NSetIdx	NpcsIdx	SkillIdx	SkillLv
0	0	2	211	1
1	1	2	216	1
2	2	2	41	1
3	3	2	70	1
4	4	2	43	1
5	5	2	45	1
6	6	2	46	1
7	7	2	205	1
8	8	2	44	1
9	9	2	212	1
10	10	2	52	1
11	11	2	53	1
12	12	2	51	1
13	13	2	206	1
14	14	2	54	1
15	15	2	35	1
16	16	2	202	1
17	17	2	36	1
18	18	2	210	1
19	19	2	37	1
20	20	2	34	1
21	21	2	56	1
22	22	2	217	1
23	23	2	55	1
24	24	2	57	1
25	25	2	214	1
26	26	2	58	1
27	27	2	213	1
28	28	2	219	1
29	29	2	218	1
30	30	2	220	1
31	31	2	221	1
32	32	2	215	1
33	33	2	207	1
34	34	2	250	1
35	35	2	260	1
36	36	2	245	1
37	37	2	153	1
38	38	2	223	1
39	39	2	246	1
40	40	2	234	1
41	41	2	236	1
42	42	2	138	1
43	43	2	272	1
44	44	2	140	1
45	45	2	261	1
46	46	2	154	1
47	47	2	229	1
48	48	2	155	1
49	49	2	251	1
50	50	2	235	1
51	51	2	273	1
52	52	2	139	1
53	53	2	262	1
54	54	2	263	1
55	55	2	228	1
56	56	2	224	1
57	57	2	156	1
58	58	2	141	1
59	59	2	247	1
60	60	2	227	1
61	61	2	269	1
62	62	2	225	1
63	63	2	274	1
64	64	2	226	1
65	65	2	270	1
66	66	2	271	1
67	67	2	307	1
68	68	2	308	1
69	69	2	300	6
70	70	2	301	6
71	71	2	302	4
72	72	2	303	4
73	73	2	304	4
74	74	2	305	5
75	75	2	306	5
76	76	2	300	7
77	77	2	301	7
78	78	2	302	5
79	79	2	303	5
80	80	2	304	5
81	81	2	305	6
82	82	2	306	6
83	83	2	300	8
84	84	2	301	8
85	85	2	302	6
86	86	2	303	6
87	87	2	304	6
88	88	2	305	7
89	89	2	306	7
90	90	2	300	9
91	91	2	301	9
92	92	2	302	7
93	93	2	303	7
94	94	2	304	7
95	95	2	305	8
96	96	2	306	8
97	97	2	300	10
98	98	2	301	10
99	99	2	302	8
100	100	2	303	8
101	101	2	304	8
102	102	2	305	9
103	103	2	306	9
104	104	2	310	1
105	105	2	311	1
106	106	2	312	1
107	107	2	313	1
108	108	2	314	1
109	109	2	310	2
110	110	2	311	2
111	111	2	312	2
112	112	2	313	2
113	113	2	314	2
114	114	2	310	3
115	115	2	311	3
116	116	2	312	3
117	117	2	313	3
118	118	2	314	3
119	119	2	167	1
120	120	2	168	1
121	121	2	63	1
122	122	2	64	1
123	123	2	65	1
124	124	2	66	1
125	125	2	468	1
126	126	2	469	1
127	127	2	470	1
130	128	2	473	1
131	129	2	71	1
132	130	2	471	1
133	131	2	472	1

[ShopLst]	NpcsIdx	NSetIdx	ItemKind	ItemOpt	ReputationClass	DurationIdx	Price
0	4	0	95	0	-19	0	24300
1	4	2	80	0	-19	0	24300
2	4	4	65	0	-19	0	16200
3	4	5	50	0	-19	0	16200
4	4	32	96	0	-19	0	48600
5	4	34	81	0	-19	0	48600
6	4	36	66	0	-19	0	32400
7	4	37	51	0	-19	0	32400
8	5	0	245	0	-19	0	16200
9	5	2	260	0	-19	0	16200
10	5	4	275	0	-19	0	16200
11	5	16	110	0	-19	0	24300
12	5	18	125	0	-19	0	24300
13	5	20	140	0	-19	0	24300
14	5	22	155	0	-19	0	16200
15	5	38	170	0	-19	0	16200
16	5	48	200	0	-19	0	16200
17	5	50	215	0	-19	0	16200
18	5	52	230	0	-19	0	16200
19	5	54	185	0	-19	0	16200
20	5	64	246	0	-19	0	32400
21	5	66	261	0	-19	0	32400
22	5	68	276	0	-19	0	32400
23	5	80	111	0	-19	0	48600
24	5	82	126	0	-19	0	48600
25	5	84	141	0	-19	0	48600
26	5	86	156	0	-19	0	32400
27	5	102	171	0	-19	0	32400
28	5	112	201	0	-19	0	32400
29	5	114	216	0	-19	0	32400
30	5	116	231	0	-19	0	32400
31	5	118	186	0	-19	0	32400
32	6	0	35	0	-19	0	16200
33	6	2	36	0	-19	0	32400
34	6	4	20	0	-19	0	16200
35	6	6	21	0	-19	0	32400
36	6	16	1794	0	-19	0	16200
37	6	17	1795	0	-19	0	32400
38	6	21	289	0	-19	0	42400
39	6	22	296	0	-19	0	32000
40	6	23	297	0	-19	0	42400
41	6	29	316	0	-19	0	42400
42	6	30	319	0	-19	0	32000
43	6	31	323	0	-19	0	32000
44	6	37	304	0	-19	0	35200
45	6	38	305	0	-19	0	45600
46	6	39	288	0	-19	0	32000
47	6	48	352	0	-19	0	42400
48	6	50	356	0	-19	0	42400
49	6	64	360	0	-19	0	42400
50	6	66	366	0	-19	0	32000
51	6	56	370	0	-19	0	42400
52	6	58	373	0	-19	0	42400
53	6	72	380	0	-19	0	37600
54	6	74	381	0	-19	0	48000
55	6	88	626	40	-19	0	25000000
56	6	90	626	41	-19	0	25000000
57	6	92	626	42	-19	0	25000000
58	6	94	626	50	-19	0	25000000
59	6	96	626	51	-19	0	25000000
60	6	98	626	52	-19	0	25000000
61	6	100	626	53	-19	0	25000000
62	6	102	626	54	-19	0	25000000
63	6	104	626	55	-19	0	25000000
64	6	106	626	56	-19	0	25000000
65	6	108	626	57	-19	0	25000000
66	6	110	626	58	-19	0	25000000
67	6	112	626	59	-19	0	25000000
68	6	114	626	60	-19	0	25000000
69	6	116	626	63	-19	0	25000000
70	6	118	626	65	-19	0	25000000
71	6	120	626	66	-19	0	25000000
72	6	122	626	75	-19	0	25000000
73	6	124	626	76	-19	0	25000000
74	6	126	626	77	-19	0	25000000
75	7	0	3	50	-19	0	2000
76	7	1	3	100	-19	0	4000
77	7	2	3	250	-19	0	10000
78	7	3	3	500	-19	0	20000
79	7	8	4	50	-19	0	10000
80	7	9	4	100	-19	0	20000
81	7	10	4	250	-19	0	50000
82	7	11	4	500	-19	0	100000
83	7	16	5	50	-19	0	50000
84	7	17	5	100	-19	0	100000
85	7	18	5	250	-19	0	250000
86	7	19	5	500	-19	0	500000
87	7	24	1757	50	-19	0	70000
88	7	25	1757	100	-19	0	140000
89	7	26	1757	250	-19	0	350000
90	7	27	1757	500	-19	0	700000
91	7	32	6	50	-19	0	2000
92	7	33	6	100	-19	0	4000
93	7	34	6	250	-19	0	10000
94	7	35	6	500	-19	0	20000
95	7	40	7	50	-19	0	10000
96	7	41	7	100	-19	0	20000
97	7	42	7	250	-19	0	50000
98	7	43	7	500	-19	0	100000
99	7	48	8	50	-19	0	50000
100	7	49	8	100	-19	0	100000
101	7	50	8	250	-19	0	250000
102	7	51	8	500	-19	0	500000
103	7	56	1758	50	-19	0	70000
104	7	57	1758	100	-19	0	140000
105	7	58	1758	250	-19	0	350000
106	7	59	1758	500	-19	0	700000
107	7	64	12	50	-19	0	10000
108	7	65	12	100	-19	0	20000
109	7	66	12	250	-19	0	50000
110	7	67	12	500	-19	0	100000
111	7	80	626	78	-19	0	25000000
112	7	82	626	79	-19	0	25000000
113	7	84	626	80	-19	0	25000000
114	7	86	626	81	-19	0	25000000
115	7	88	626	82	-19	0	25000000
116	7	90	626	83	-19	0	25000000
117	7	92	626	84	-19	0	25000000
118	7	94	626	85	-19	0	25000000
119	7	96	626	86	-19	0	25000000
120	7	98	626	87	-19	0	25000000
121	7	100	626	88	-19	0	25000000
122	7	102	626	89	-19	0	25000000
123	7	104	626	90	-19	0	25000000
124	7	106	626	91	-19	0	25000000
125	7	108	626	92	-19	0	25000000
126	7	110	626	93	-19	0	25000000
127	7	112	626	95	-19	0	25000000
128	7	114	626	96	-19	0	25000000
129	7	116	626	97	-19	0	25000000
130	7	118	626	98	-19	0	25000000
131	7	120	626	99	-19	0	25000000
132	7	122	626	100	-19	0	25000000
133	7	124	626	101	-19	0	25000000
134	7	126	626	102	-19	0	25000000
135	50	0	3	50	-19	0	2000
136	50	1	3	100	-19	0	4000
137	50	2	3	250	-19	0	10000
138	50	3	3	500	-19	0	20000
139	50	8	4	50	-19	0	10000
140	50	9	4	100	-19	0	20000
141	50	10	4	250	-19	0	50000
142	50	11	4	500	-19	0	100000
143	50	16	5	50	-19	0	50000
144	50	17	5	100	-19	0	100000
145	50	18	5	250	-19	0	250000
146	50	19	5	500	-19	0	500000
147	50	24	1757	50	-19	0	70000
148	50	25	1757	100	-19	0	140000
149	50	26	1757	250	-19	0	350000
150	50	27	1757	500	-19	0	700000
151	50	32	6	50	-19	0	2000
152	50	33	6	100	-19	0	4000
153	50	34	6	250	-19	0	10000
154	50	35	6	500	-19	0	20000
155	50	40	7	50	-19	0	10000
156	50	41	7	100	-19	0	20000
157	50	42	7	250	-19	0	50000
158	50	43	7	500	-19	0	100000
159	50	48	8	50	-19	0	50000
160	50	49	8	100	-19	0	100000
161	50	50	8	250	-19	0	250000
162	50	51	8	500	-19	0	500000
163	50	56	1758	50	-19	0	70000
164	50	57	1758	100	-19	0	140000
165	50	58	1758	250	-19	0	350000
166	50	59	1758	500	-19	0	700000
167	50	64	12	50	-19	0	10000
168	50	65	12	100	-19	0	20000
169	50	66	12	250	-19	0	50000
170	50	67	12	500	-19	0	100000
171	75	0	692	7818	-19	0	400
172	75	1	692	8458	-19	0	400
173	75	2	692	9098	-19	0	400
174	75	3	692	9738	-19	0	400
175	75	16	692	7946	-19	0	400
176	75	17	692	8586	-19	0	400
177	75	18	692	9226	-19	0	400
178	75	19	692	9866	-19	0	400
179	75	32	692	8074	-19	0	400
180	75	33	692	8714	-19	0	400
181	75	34	692	9354	-19	0	400
182	75	35	692	9994	-19	0	400
183	75	48	692	8202	-19	0	400
184	75	49	692	8842	-19	0	400
185	75	50	692	9482	-19	0	400
186	75	51	692	10122	-19	0	400
187	75	64	692	8330	-19	0	400
188	75	65	692	8970	-19	0	400
189	75	66	692	9610	-19	0	400
190	75	67	692	10250	-19	0	400
191	75	4	683	138	-19	0	400
192	75	5	683	266	-19	0	400
193	75	6	683	394	-19	0	400
194	75	7	683	522	-19	0	400
195	75	12	684	138	-19	0	400
196	75	13	684	266	-19	0	400
197	75	14	684	394	-19	0	400
198	75	15	684	522	-19	0	400
199	75	20	685	138	-19	0	400
200	75	21	685	266	-19	0	400
201	75	22	685	394	-19	0	400
202	75	23	685	522	-19	0	400
203	75	28	686	138	-19	0	400
204	75	29	686	266	-19	0	400
205	75	30	686	394	-19	0	400
206	75	31	686	522	-19	0	400
207	75	36	687	138	-19	0	400
208	75	37	687	266	-19	0	400
209	75	38	687	394	-19	0	400
210	75	39	687	522	-19	0	400
211	75	44	688	138	-19	0	400
212	75	45	688	266	-19	0	400
213	75	46	688	394	-19	0	400
214	75	47	688	522	-19	0	400
215	75	52	689	138	-19	0	400
216	75	53	689	266	-19	0	400
217	75	54	689	394	-19	0	400
218	75	55	689	522	-19	0	400
219	75	60	690	138	-19	0	400
220	75	61	690	266	-19	0	400
221	75	62	690	394	-19	0	400
222	75	63	690	522	-19	0	400
223	75	68	691	138	-19	0	400
224	75	69	691	266	-19	0	400
225	75	70	691	394	-19	0	400
226	75	71	691	522	-19	0	400
227	75	80	676	138	-19	0	400
228	75	81	677	138	-19	0	400
229	75	82	678	138	-19	0	400
230	75	83	679	138	-19	0	400
231	75	84	680	138	-19	0	400
232	75	85	681	138	-19	0	400
233	75	104	605	138	-19	0	28800
234	75	105	606	138	-19	0	43200
235	75	106	607	138	-19	0	86400
236	75	107	608	138	-19	0	172800
237	75	108	609	138	-19	0	259200
238	75	109	610	138	-19	0	518400
239	75	110	611	138	-19	0	777600
240	75	111	612	138	-19	0	1555200
241	75	112	615	138	-19	0	28800
242	75	113	616	138	-19	0	28800
243	75	114	617	138	-19	0	43200
244	75	115	618	138	-19	0	86400
245	75	116	619	138	-19	0	172800
246	75	117	620	138	-19	0	259200
247	75	118	621	138	-19	0	518400
248	75	119	622	138	-19	0	777600
249	75	120	623	138	-19	0	1555200

